sat
(
  (define-fun v4x6_9 () Bool
    false)
  (define-fun v1x9_5 () Bool
    false)
  (define-fun v4x3_5 () Bool
    false)
  (define-fun v7x8_1 () Bool
    false)
  (define-fun v8x4_3 () Bool
    false)
  (define-fun v7x6_7 () Bool
    true)
  (define-fun v7x1_7 () Bool
    false)
  (define-fun v5x5_4 () Bool
    false)
  (define-fun v7x9_7 () Bool
    false)
  (define-fun v8x9_5 () Bool
    true)
  (define-fun v7x3_2 () Bool
    false)
  (define-fun v3x7_3 () Bool
    false)
  (define-fun v8x3_3 () Bool
    false)
  (define-fun v7x2_9 () Bool
    false)
  (define-fun v6x4_7 () Bool
    false)
  (define-fun v1x9_4 () Bool
    false)
  (define-fun v3x3_6 () Bool
    false)
  (define-fun v7x9_2 () Bool
    false)
  (define-fun v3x9_6 () Bool
    false)
  (define-fun v8x1_1 () Bool
    false)
  (define-fun v5x3_6 () Bool
    true)
  (define-fun v4x6_5 () Bool
    false)
  (define-fun v9x6_5 () Bool
    false)
  (define-fun v4x3_4 () Bool
    false)
  (define-fun v4x8_1 () Bool
    false)
  (define-fun v3x7_4 () Bool
    false)
  (define-fun v4x9_2 () Bool
    false)
  (define-fun v1x4_4 () Bool
    false)
  (define-fun v6x4_6 () Bool
    false)
  (define-fun v7x4_3 () Bool
    false)
  (define-fun v5x5_7 () Bool
    false)
  (define-fun v1x3_3 () Bool
    false)
  (define-fun v2x2_2 () Bool
    false)
  (define-fun v5x7_3 () Bool
    false)
  (define-fun v7x6_3 () Bool
    false)
  (define-fun v3x2_1 () Bool
    false)
  (define-fun v6x7_4 () Bool
    false)
  (define-fun v3x7_9 () Bool
    false)
  (define-fun v8x9_1 () Bool
    false)
  (define-fun v9x4_8 () Bool
    false)
  (define-fun v9x2_9 () Bool
    false)
  (define-fun v2x7_5 () Bool
    false)
  (define-fun v2x7_3 () Bool
    true)
  (define-fun v6x9_4 () Bool
    false)
  (define-fun v4x5_4 () Bool
    false)
  (define-fun v4x2_6 () Bool
    false)
  (define-fun v9x6_3 () Bool
    false)
  (define-fun v7x1_8 () Bool
    false)
  (define-fun v5x1_5 () Bool
    false)
  (define-fun v3x9_9 () Bool
    false)
  (define-fun v2x8_9 () Bool
    false)
  (define-fun v6x7_6 () Bool
    false)
  (define-fun v9x3_9 () Bool
    false)
  (define-fun v6x7_7 () Bool
    false)
  (define-fun v7x7_2 () Bool
    true)
  (define-fun v6x6_1 () Bool
    false)
  (define-fun v2x3_4 () Bool
    false)
  (define-fun v9x9_5 () Bool
    false)
  (define-fun v6x5_8 () Bool
    false)
  (define-fun v5x3_4 () Bool
    false)
  (define-fun v1x8_1 () Bool
    true)
  (define-fun v1x8_4 () Bool
    false)
  (define-fun v3x3_3 () Bool
    false)
  (define-fun v3x2_5 () Bool
    false)
  (define-fun v4x5_5 () Bool
    false)
  (define-fun v1x4_2 () Bool
    false)
  (define-fun v7x1_1 () Bool
    false)
  (define-fun v4x1_3 () Bool
    false)
  (define-fun v7x2_5 () Bool
    false)
  (define-fun v7x8_6 () Bool
    false)
  (define-fun v7x3_9 () Bool
    false)
  (define-fun v2x5_2 () Bool
    false)
  (define-fun v8x3_1 () Bool
    false)
  (define-fun v6x8_6 () Bool
    false)
  (define-fun v5x1_4 () Bool
    true)
  (define-fun v6x3_1 () Bool
    false)
  (define-fun v2x3_9 () Bool
    false)
  (define-fun v1x1_9 () Bool
    false)
  (define-fun v8x3_4 () Bool
    false)
  (define-fun v8x4_6 () Bool
    false)
  (define-fun v1x8_5 () Bool
    false)
  (define-fun v7x6_5 () Bool
    false)
  (define-fun v3x8_5 () Bool
    false)
  (define-fun v3x1_2 () Bool
    false)
  (define-fun v4x3_9 () Bool
    true)
  (define-fun v4x6_6 () Bool
    false)
  (define-fun v7x3_5 () Bool
    false)
  (define-fun v7x3_8 () Bool
    false)
  (define-fun v9x1_3 () Bool
    true)
  (define-fun v7x9_5 () Bool
    false)
  (define-fun v7x4_8 () Bool
    false)
  (define-fun v3x3_9 () Bool
    false)
  (define-fun v5x9_4 () Bool
    false)
  (define-fun v2x6_5 () Bool
    true)
  (define-fun v8x6_4 () Bool
    false)
  (define-fun v4x1_4 () Bool
    false)
  (define-fun v3x8_9 () Bool
    false)
  (define-fun v8x6_3 () Bool
    false)
  (define-fun v7x1_5 () Bool
    false)
  (define-fun v5x4_7 () Bool
    false)
  (define-fun v2x9_1 () Bool
    false)
  (define-fun v7x7_8 () Bool
    false)
  (define-fun v6x1_3 () Bool
    false)
  (define-fun v4x4_1 () Bool
    false)
  (define-fun v3x4_5 () Bool
    false)
  (define-fun v3x1_9 () Bool
    false)
  (define-fun v8x8_6 () Bool
    false)
  (define-fun v1x4_7 () Bool
    false)
  (define-fun v6x3_2 () Bool
    false)
  (define-fun v5x5_5 () Bool
    true)
  (define-fun v8x1_3 () Bool
    false)
  (define-fun v8x7_3 () Bool
    false)
  (define-fun v4x4_6 () Bool
    false)
  (define-fun v9x7_8 () Bool
    false)
  (define-fun v8x5_1 () Bool
    true)
  (define-fun v2x9_4 () Bool
    false)
  (define-fun v2x4_2 () Bool
    false)
  (define-fun v8x4_1 () Bool
    false)
  (define-fun v9x6_4 () Bool
    false)
  (define-fun v8x6_5 () Bool
    false)
  (define-fun v5x6_8 () Bool
    false)
  (define-fun v4x9_9 () Bool
    false)
  (define-fun v8x9_2 () Bool
    false)
  (define-fun v1x1_3 () Bool
    false)
  (define-fun v4x6_2 () Bool
    false)
  (define-fun v8x2_2 () Bool
    false)
  (define-fun v9x4_5 () Bool
    false)
  (define-fun v4x3_7 () Bool
    false)
  (define-fun v8x9_9 () Bool
    false)
  (define-fun v6x2_6 () Bool
    false)
  (define-fun v1x4_5 () Bool
    false)
  (define-fun v9x8_7 () Bool
    true)
  (define-fun v3x1_5 () Bool
    false)
  (define-fun v4x7_8 () Bool
    false)
  (define-fun v4x4_4 () Bool
    false)
  (define-fun v4x9_8 () Bool
    false)
  (define-fun v6x1_7 () Bool
    true)
  (define-fun v1x2_1 () Bool
    false)
  (define-fun v1x5_1 () Bool
    false)
  (define-fun v3x4_2 () Bool
    false)
  (define-fun v2x9_2 () Bool
    false)
  (define-fun v2x2_1 () Bool
    false)
  (define-fun v7x8_9 () Bool
    false)
  (define-fun v1x6_1 () Bool
    false)
  (define-fun v2x4_8 () Bool
    false)
  (define-fun v6x9_8 () Bool
    false)
  (define-fun v1x5_4 () Bool
    false)
  (define-fun v5x9_1 () Bool
    true)
  (define-fun v9x7_4 () Bool
    false)
  (define-fun v8x9_7 () Bool
    false)
  (define-fun v8x9_4 () Bool
    false)
  (define-fun v6x4_4 () Bool
    false)
  (define-fun v2x8_6 () Bool
    false)
  (define-fun v8x1_2 () Bool
    true)
  (define-fun v1x6_7 () Bool
    false)
  (define-fun v2x9_5 () Bool
    false)
  (define-fun v3x8_3 () Bool
    false)
  (define-fun v9x3_3 () Bool
    false)
  (define-fun v4x5_6 () Bool
    true)
  (define-fun v7x9_4 () Bool
    true)
  (define-fun v9x3_7 () Bool
    false)
  (define-fun v5x9_7 () Bool
    false)
  (define-fun v8x6_9 () Bool
    true)
  (define-fun v5x2_6 () Bool
    false)
  (define-fun v5x3_5 () Bool
    false)
  (define-fun v1x2_9 () Bool
    false)
  (define-fun v5x6_2 () Bool
    false)
  (define-fun v6x4_9 () Bool
    true)
  (define-fun v3x2_3 () Bool
    false)
  (define-fun v8x3_9 () Bool
    false)
  (define-fun v2x6_4 () Bool
    false)
  (define-fun v9x7_7 () Bool
    false)
  (define-fun v2x1_4 () Bool
    false)
  (define-fun v8x5_2 () Bool
    false)
  (define-fun v9x3_5 () Bool
    true)
  (define-fun v6x9_1 () Bool
    false)
  (define-fun v3x7_6 () Bool
    false)
  (define-fun v2x6_3 () Bool
    false)
  (define-fun v1x9_3 () Bool
    false)
  (define-fun v2x3_5 () Bool
    false)
  (define-fun v9x5_7 () Bool
    false)
  (define-fun v7x5_1 () Bool
    false)
  (define-fun v9x1_5 () Bool
    false)
  (define-fun v7x6_4 () Bool
    false)
  (define-fun v4x2_5 () Bool
    true)
  (define-fun v2x6_8 () Bool
    false)
  (define-fun v8x7_9 () Bool
    false)
  (define-fun v6x6_3 () Bool
    false)
  (define-fun v9x1_4 () Bool
    false)
  (define-fun v7x7_7 () Bool
    false)
  (define-fun v6x8_9 () Bool
    false)
  (define-fun v3x5_3 () Bool
    false)
  (define-fun v3x6_4 () Bool
    false)
  (define-fun v5x4_2 () Bool
    false)
  (define-fun v4x6_7 () Bool
    false)
  (define-fun v6x4_8 () Bool
    false)
  (define-fun v5x4_9 () Bool
    false)
  (define-fun v7x9_9 () Bool
    false)
  (define-fun v2x4_6 () Bool
    false)
  (define-fun v8x7_4 () Bool
    false)
  (define-fun v6x5_9 () Bool
    false)
  (define-fun v5x2_2 () Bool
    true)
  (define-fun v9x7_6 () Bool
    false)
  (define-fun v3x9_4 () Bool
    false)
  (define-fun v1x3_5 () Bool
    false)
  (define-fun v2x5_9 () Bool
    true)
  (define-fun v2x5_6 () Bool
    false)
  (define-fun v6x8_2 () Bool
    false)
  (define-fun v6x3_6 () Bool
    false)
  (define-fun v1x3_1 () Bool
    false)
  (define-fun v8x8_4 () Bool
    false)
  (define-fun v2x3_6 () Bool
    false)
  (define-fun v5x7_5 () Bool
    false)
  (define-fun v7x1_6 () Bool
    false)
  (define-fun v6x5_4 () Bool
    false)
  (define-fun v1x1_5 () Bool
    true)
  (define-fun v9x9_7 () Bool
    false)
  (define-fun v6x5_7 () Bool
    false)
  (define-fun v3x5_4 () Bool
    true)
  (define-fun v1x4_6 () Bool
    true)
  (define-fun v5x8_9 () Bool
    true)
  (define-fun v1x9_6 () Bool
    false)
  (define-fun v1x8_8 () Bool
    false)
  (define-fun v5x1_8 () Bool
    false)
  (define-fun v5x1_9 () Bool
    false)
  (define-fun v2x9_3 () Bool
    false)
  (define-fun v2x5_3 () Bool
    false)
  (define-fun v2x6_6 () Bool
    false)
  (define-fun v4x4_7 () Bool
    true)
  (define-fun v5x3_3 () Bool
    false)
  (define-fun v6x4_1 () Bool
    false)
  (define-fun v2x2_5 () Bool
    false)
  (define-fun v5x2_1 () Bool
    false)
  (define-fun v8x7_7 () Bool
    false)
  (define-fun v7x4_1 () Bool
    false)
  (define-fun v8x2_3 () Bool
    false)
  (define-fun v7x3_7 () Bool
    false)
  (define-fun v1x9_8 () Bool
    false)
  (define-fun v6x8_4 () Bool
    false)
  (define-fun v7x5_3 () Bool
    true)
  (define-fun v3x6_6 () Bool
    false)
  (define-fun v9x1_6 () Bool
    false)
  (define-fun v8x6_1 () Bool
    false)
  (define-fun v4x2_4 () Bool
    false)
  (define-fun v6x5_5 () Bool
    false)
  (define-fun v3x5_1 () Bool
    false)
  (define-fun v2x9_8 () Bool
    true)
  (define-fun v4x3_6 () Bool
    false)
  (define-fun v1x5_5 () Bool
    false)
  (define-fun v1x4_8 () Bool
    false)
  (define-fun v2x7_9 () Bool
    false)
  (define-fun v6x5_6 () Bool
    false)
  (define-fun v3x3_1 () Bool
    false)
  (define-fun v5x8_3 () Bool
    false)
  (define-fun v9x8_2 () Bool
    false)
  (define-fun v3x5_5 () Bool
    false)
  (define-fun v7x2_1 () Bool
    false)
  (define-fun v2x2_7 () Bool
    true)
  (define-fun v5x8_2 () Bool
    false)
  (define-fun v1x6_3 () Bool
    false)
  (define-fun v9x3_2 () Bool
    false)
  (define-fun v4x3_8 () Bool
    false)
  (define-fun v8x5_8 () Bool
    false)
  (define-fun v3x3_7 () Bool
    false)
  (define-fun v4x7_9 () Bool
    false)
  (define-fun v6x7_5 () Bool
    false)
  (define-fun v6x9_2 () Bool
    false)
  (define-fun v6x6_9 () Bool
    false)
  (define-fun v9x6_6 () Bool
    true)
  (define-fun v3x8_2 () Bool
    false)
  (define-fun v3x6_3 () Bool
    false)
  (define-fun v6x7_1 () Bool
    false)
  (define-fun v8x4_7 () Bool
    false)
  (define-fun v7x1_4 () Bool
    false)
  (define-fun v1x9_7 () Bool
    false)
  (define-fun v9x9_8 () Bool
    false)
  (define-fun v5x4_1 () Bool
    false)
  (define-fun v8x2_5 () Bool
    false)
  (define-fun v3x9_3 () Bool
    false)
  (define-fun v1x5_2 () Bool
    false)
  (define-fun v3x2_8 () Bool
    false)
  (define-fun v2x1_6 () Bool
    true)
  (define-fun v6x7_2 () Bool
    false)
  (define-fun v9x9_2 () Bool
    false)
  (define-fun v9x3_4 () Bool
    false)
  (define-fun v4x8_3 () Bool
    false)
  (define-fun v4x2_3 () Bool
    false)
  (define-fun v4x3_3 () Bool
    false)
  (define-fun v5x7_9 () Bool
    false)
  (define-fun v6x3_3 () Bool
    true)
  (define-fun v9x5_5 () Bool
    false)
  (define-fun v2x6_1 () Bool
    false)
  (define-fun v2x6_9 () Bool
    false)
  (define-fun v4x1_7 () Bool
    false)
  (define-fun v6x6_6 () Bool
    false)
  (define-fun v4x7_1 () Bool
    false)
  (define-fun v6x3_7 () Bool
    false)
  (define-fun v7x3_4 () Bool
    false)
  (define-fun v2x6_7 () Bool
    false)
  (define-fun v8x7_8 () Bool
    false)
  (define-fun v5x5_8 () Bool
    false)
  (define-fun v6x2_4 () Bool
    false)
  (define-fun v3x7_7 () Bool
    false)
  (define-fun v6x2_2 () Bool
    false)
  (define-fun v2x1_1 () Bool
    false)
  (define-fun v4x2_1 () Bool
    false)
  (define-fun v9x6_2 () Bool
    false)
  (define-fun v5x5_6 () Bool
    false)
  (define-fun v6x6_5 () Bool
    false)
  (define-fun v1x3_8 () Bool
    false)
  (define-fun v1x6_2 () Bool
    false)
  (define-fun v4x1_6 () Bool
    false)
  (define-fun v7x2_4 () Bool
    false)
  (define-fun v5x2_9 () Bool
    false)
  (define-fun v1x3_2 () Bool
    false)
  (define-fun v8x1_8 () Bool
    false)
  (define-fun v4x5_7 () Bool
    false)
  (define-fun v3x2_6 () Bool
    false)
  (define-fun v8x5_4 () Bool
    false)
  (define-fun v6x3_5 () Bool
    false)
  (define-fun v5x6_4 () Bool
    false)
  (define-fun v9x1_9 () Bool
    false)
  (define-fun v8x5_7 () Bool
    false)
  (define-fun v7x2_2 () Bool
    false)
  (define-fun v1x2_6 () Bool
    false)
  (define-fun v7x4_2 () Bool
    false)
  (define-fun v9x9_3 () Bool
    false)
  (define-fun v9x4_4 () Bool
    false)
  (define-fun v9x9_4 () Bool
    false)
  (define-fun v1x7_8 () Bool
    false)
  (define-fun v5x8_4 () Bool
    false)
  (define-fun v7x3_1 () Bool
    true)
  (define-fun v1x7_4 () Bool
    false)
  (define-fun v9x5_3 () Bool
    false)
  (define-fun v6x9_3 () Bool
    false)
  (define-fun v5x7_2 () Bool
    false)
  (define-fun v5x6_1 () Bool
    false)
  (define-fun v6x8_5 () Bool
    true)
  (define-fun v1x4_9 () Bool
    false)
  (define-fun v9x2_4 () Bool
    true)
  (define-fun v5x6_6 () Bool
    false)
  (define-fun v5x4_5 () Bool
    false)
  (define-fun v6x9_9 () Bool
    false)
  (define-fun v8x3_5 () Bool
    false)
  (define-fun v4x6_4 () Bool
    false)
  (define-fun v7x5_8 () Bool
    false)
  (define-fun v1x1_4 () Bool
    false)
  (define-fun v6x2_5 () Bool
    false)
  (define-fun v3x5_2 () Bool
    false)
  (define-fun v3x6_5 () Bool
    false)
  (define-fun v9x5_6 () Bool
    false)
  (define-fun v4x8_6 () Bool
    false)
  (define-fun v8x9_8 () Bool
    false)
  (define-fun v6x1_6 () Bool
    false)
  (define-fun v9x5_2 () Bool
    false)
  (define-fun v7x9_1 () Bool
    false)
  (define-fun v4x4_2 () Bool
    false)
  (define-fun v7x5_6 () Bool
    false)
  (define-fun v9x1_7 () Bool
    false)
  (define-fun v9x4_7 () Bool
    false)
  (define-fun v3x6_8 () Bool
    false)
  (define-fun v5x1_1 () Bool
    false)
  (define-fun v5x3_1 () Bool
    false)
  (define-fun v1x2_4 () Bool
    false)
  (define-fun v9x2_2 () Bool
    false)
  (define-fun v9x3_1 () Bool
    false)
  (define-fun v7x4_7 () Bool
    false)
  (define-fun v9x7_5 () Bool
    false)
  (define-fun v5x1_7 () Bool
    false)
  (define-fun v5x9_6 () Bool
    false)
  (define-fun v7x7_4 () Bool
    false)
  (define-fun v7x7_6 () Bool
    false)
  (define-fun v8x9_6 () Bool
    false)
  (define-fun v9x5_9 () Bool
    false)
  (define-fun v2x7_6 () Bool
    false)
  (define-fun v3x9_1 () Bool
    false)
  (define-fun v8x2_6 () Bool
    false)
  (define-fun v9x1_8 () Bool
    false)
  (define-fun v3x9_8 () Bool
    false)
  (define-fun v6x6_7 () Bool
    false)
  (define-fun v2x7_1 () Bool
    false)
  (define-fun v9x5_8 () Bool
    true)
  (define-fun v8x8_8 () Bool
    false)
  (define-fun v4x9_5 () Bool
    false)
  (define-fun v3x6_1 () Bool
    false)
  (define-fun v9x8_9 () Bool
    false)
  (define-fun v3x7_2 () Bool
    false)
  (define-fun v8x8_7 () Bool
    false)
  (define-fun v8x2_8 () Bool
    true)
  (define-fun v5x5_3 () Bool
    false)
  (define-fun v8x2_4 () Bool
    false)
  (define-fun v8x8_1 () Bool
    false)
  (define-fun v9x3_8 () Bool
    false)
  (define-fun v4x8_8 () Bool
    false)
  (define-fun v5x7_4 () Bool
    false)
  (define-fun v5x7_6 () Bool
    false)
  (define-fun v2x7_2 () Bool
    false)
  (define-fun v9x8_5 () Bool
    false)
  (define-fun v1x8_6 () Bool
    false)
  (define-fun v7x6_1 () Bool
    false)
  (define-fun v9x2_6 () Bool
    false)
  (define-fun v2x7_4 () Bool
    false)
  (define-fun v4x9_4 () Bool
    false)
  (define-fun v2x4_9 () Bool
    false)
  (define-fun v3x7_5 () Bool
    true)
  (define-fun v2x9_7 () Bool
    false)
  (define-fun v4x1_1 () Bool
    false)
  (define-fun v7x2_8 () Bool
    false)
  (define-fun v3x5_9 () Bool
    false)
  (define-fun v3x1_3 () Bool
    false)
  (define-fun v3x2_7 () Bool
    false)
  (define-fun v1x8_9 () Bool
    false)
  (define-fun v4x2_2 () Bool
    false)
  (define-fun v4x5_1 () Bool
    false)
  (define-fun v5x1_2 () Bool
    false)
  (define-fun v6x7_8 () Bool
    true)
  (define-fun v3x4_1 () Bool
    false)
  (define-fun v8x3_7 () Bool
    true)
  (define-fun v9x2_7 () Bool
    false)
  (define-fun v7x6_8 () Bool
    false)
  (define-fun v2x7_7 () Bool
    false)
  (define-fun v7x8_2 () Bool
    false)
  (define-fun v2x3_3 () Bool
    false)
  (define-fun v7x7_1 () Bool
    false)
  (define-fun v2x1_3 () Bool
    false)
  (define-fun v6x6_8 () Bool
    false)
  (define-fun v8x6_6 () Bool
    false)
  (define-fun v5x9_8 () Bool
    false)
  (define-fun v3x4_4 () Bool
    false)
  (define-fun v1x7_3 () Bool
    false)
  (define-fun v9x8_6 () Bool
    false)
  (define-fun v7x4_5 () Bool
    true)
  (define-fun v8x4_4 () Bool
    true)
  (define-fun v4x5_2 () Bool
    false)
  (define-fun v4x6_3 () Bool
    false)
  (define-fun v9x6_8 () Bool
    false)
  (define-fun v7x8_5 () Bool
    false)
  (define-fun v1x7_5 () Bool
    false)
  (define-fun v6x2_9 () Bool
    false)
  (define-fun v2x1_7 () Bool
    false)
  (define-fun v5x4_3 () Bool
    false)
  (define-fun v8x4_5 () Bool
    false)
  (define-fun v2x3_1 () Bool
    false)
  (define-fun v4x4_5 () Bool
    false)
  (define-fun v3x9_5 () Bool
    false)
  (define-fun v2x5_5 () Bool
    false)
  (define-fun v7x6_9 () Bool
    false)
  (define-fun v6x1_5 () Bool
    false)
  (define-fun v6x2_7 () Bool
    false)
  (define-fun v6x1_8 () Bool
    false)
  (define-fun v1x7_9 () Bool
    true)
  (define-fun v3x1_4 () Bool
    false)
  (define-fun v3x1_8 () Bool
    false)
  (define-fun v2x2_9 () Bool
    false)
  (define-fun v6x5_2 () Bool
    true)
  (define-fun v1x1_1 () Bool
    false)
  (define-fun v3x6_2 () Bool
    true)
  (define-fun v4x3_1 () Bool
    false)
  (define-fun v5x4_6 () Bool
    false)
  (define-fun v5x7_7 () Bool
    true)
  (define-fun v8x6_8 () Bool
    false)
  (define-fun v7x9_8 () Bool
    false)
  (define-fun v3x4_9 () Bool
    false)
  (define-fun v8x2_7 () Bool
    false)
  (define-fun v7x7_3 () Bool
    false)
  (define-fun v1x2_3 () Bool
    true)
  (define-fun v6x3_9 () Bool
    false)
  (define-fun v8x6_2 () Bool
    false)
  (define-fun v2x8_2 () Bool
    false)
  (define-fun v7x4_6 () Bool
    false)
  (define-fun v5x4_8 () Bool
    true)
  (define-fun v9x2_1 () Bool
    false)
  (define-fun v8x3_6 () Bool
    false)
  (define-fun v3x6_7 () Bool
    false)
  (define-fun v6x9_7 () Bool
    false)
  (define-fun v6x8_3 () Bool
    false)
  (define-fun v1x1_8 () Bool
    false)
  (define-fun v1x2_8 () Bool
    false)
  (define-fun v8x2_9 () Bool
    false)
  (define-fun v4x4_9 () Bool
    false)
  (define-fun v4x7_7 () Bool
    false)
  (define-fun v8x5_5 () Bool
    false)
  (define-fun v4x8_9 () Bool
    false)
  (define-fun v9x8_1 () Bool
    false)
  (define-fun v9x7_9 () Bool
    false)
  (define-fun v4x2_7 () Bool
    false)
  (define-fun v6x8_1 () Bool
    false)
  (define-fun v4x3_2 () Bool
    false)
  (define-fun v3x1_1 () Bool
    true)
  (define-fun v4x9_3 () Bool
    true)
  (define-fun v3x8_7 () Bool
    false)
  (define-fun v5x3_7 () Bool
    false)
  (define-fun v2x4_3 () Bool
    false)
  (define-fun v6x9_5 () Bool
    false)
  (define-fun v2x5_7 () Bool
    false)
  (define-fun v6x1_4 () Bool
    false)
  (define-fun v6x2_1 () Bool
    true)
  (define-fun v4x1_2 () Bool
    false)
  (define-fun v4x7_3 () Bool
    false)
  (define-fun v2x1_2 () Bool
    false)
  (define-fun v3x3_4 () Bool
    false)
  (define-fun v2x2_4 () Bool
    false)
  (define-fun v1x9_1 () Bool
    false)
  (define-fun v7x1_9 () Bool
    true)
  (define-fun v8x7_2 () Bool
    false)
  (define-fun v4x2_8 () Bool
    false)
  (define-fun v1x8_2 () Bool
    false)
  (define-fun v3x7_8 () Bool
    false)
  (define-fun v4x6_8 () Bool
    false)
  (define-fun v3x1_7 () Bool
    false)
  (define-fun v1x1_6 () Bool
    false)
  (define-fun v1x6_6 () Bool
    false)
  (define-fun v2x3_2 () Bool
    true)
  (define-fun v8x6_7 () Bool
    false)
  (define-fun v5x2_5 () Bool
    false)
  (define-fun v5x7_8 () Bool
    false)
  (define-fun v4x4_3 () Bool
    false)
  (define-fun v4x7_5 () Bool
    false)
  (define-fun v9x2_8 () Bool
    false)
  (define-fun v3x7_1 () Bool
    false)
  (define-fun v6x1_2 () Bool
    false)
  (define-fun v6x3_8 () Bool
    false)
  (define-fun v6x6_4 () Bool
    true)
  (define-fun v7x2_7 () Bool
    false)
  (define-fun v7x8_4 () Bool
    false)
  (define-fun v9x9_6 () Bool
    false)
  (define-fun v3x4_3 () Bool
    true)
  (define-fun v8x1_6 () Bool
    false)
  (define-fun v1x3_4 () Bool
    true)
  (define-fun v4x1_5 () Bool
    false)
  (define-fun v7x3_3 () Bool
    false)
  (define-fun v8x3_2 () Bool
    false)
  (define-fun v8x5_6 () Bool
    false)
  (define-fun v7x2_3 () Bool
    false)
  (define-fun v7x7_9 () Bool
    false)
  (define-fun v7x8_7 () Bool
    false)
  (define-fun v8x8_3 () Bool
    true)
  (define-fun v2x5_4 () Bool
    false)
  (define-fun v4x9_7 () Bool
    false)
  (define-fun v6x7_9 () Bool
    false)
  (define-fun v6x4_2 () Bool
    false)
  (define-fun v5x2_8 () Bool
    false)
  (define-fun v1x7_1 () Bool
    false)
  (define-fun v8x8_2 () Bool
    false)
  (define-fun v1x2_2 () Bool
    false)
  (define-fun v5x1_6 () Bool
    false)
  (define-fun v7x7_5 () Bool
    false)
  (define-fun v2x4_1 () Bool
    true)
  (define-fun v5x9_5 () Bool
    false)
  (define-fun v3x2_9 () Bool
    true)
  (define-fun v1x7_2 () Bool
    false)
  (define-fun v9x7_2 () Bool
    false)
  (define-fun v4x5_8 () Bool
    false)
  (define-fun v5x4_4 () Bool
    false)
  (define-fun v5x8_7 () Bool
    false)
  (define-fun v5x2_3 () Bool
    false)
  (define-fun v3x5_8 () Bool
    false)
  (define-fun v9x4_1 () Bool
    false)
  (define-fun v3x4_8 () Bool
    false)
  (define-fun v5x3_8 () Bool
    false)
  (define-fun v5x1_3 () Bool
    false)
  (define-fun v8x7_6 () Bool
    true)
  (define-fun v9x4_3 () Bool
    false)
  (define-fun v9x5_1 () Bool
    false)
  (define-fun v1x8_3 () Bool
    false)
  (define-fun v7x9_6 () Bool
    false)
  (define-fun v7x5_9 () Bool
    false)
  (define-fun v8x1_9 () Bool
    false)
  (define-fun v2x4_4 () Bool
    false)
  (define-fun v3x3_2 () Bool
    false)
  (define-fun v9x1_2 () Bool
    false)
  (define-fun v2x9_9 () Bool
    false)
  (define-fun v7x4_4 () Bool
    false)
  (define-fun v8x8_9 () Bool
    false)
  (define-fun v8x2_1 () Bool
    false)
  (define-fun v8x4_9 () Bool
    false)
  (define-fun v9x8_4 () Bool
    false)
  (define-fun v7x8_3 () Bool
    false)
  (define-fun v7x4_9 () Bool
    false)
  (define-fun v8x4_2 () Bool
    false)
  (define-fun v7x1_2 () Bool
    false)
  (define-fun v9x2_5 () Bool
    false)
  (define-fun v9x7_1 () Bool
    true)
  (define-fun v5x8_1 () Bool
    false)
  (define-fun v8x5_3 () Bool
    false)
  (define-fun v3x4_6 () Bool
    false)
  (define-fun v4x1_9 () Bool
    false)
  (define-fun v1x1_2 () Bool
    false)
  (define-fun v3x2_4 () Bool
    false)
  (define-fun v9x4_2 () Bool
    true)
  (define-fun v1x5_3 () Bool
    false)
  (define-fun v1x6_8 () Bool
    true)
  (define-fun v5x5_9 () Bool
    false)
  (define-fun v8x4_8 () Bool
    false)
  (define-fun v7x6_6 () Bool
    false)
  (define-fun v5x8_5 () Bool
    false)
  (define-fun v7x2_6 () Bool
    true)
  (define-fun v3x3_5 () Bool
    false)
  (define-fun v6x5_1 () Bool
    false)
  (define-fun v1x6_9 () Bool
    false)
  (define-fun v2x2_3 () Bool
    false)
  (define-fun v3x5_6 () Bool
    false)
  (define-fun v2x8_1 () Bool
    false)
  (define-fun v5x6_9 () Bool
    false)
  (define-fun v4x9_1 () Bool
    false)
  (define-fun v2x4_7 () Bool
    false)
  (define-fun v4x7_2 () Bool
    false)
  (define-fun v6x2_3 () Bool
    false)
  (define-fun v4x7_4 () Bool
    true)
  (define-fun v8x1_4 () Bool
    false)
  (define-fun v2x1_5 () Bool
    false)
  (define-fun v5x8_6 () Bool
    false)
  (define-fun v8x7_5 () Bool
    false)
  (define-fun v1x4_3 () Bool
    false)
  (define-fun v9x6_9 () Bool
    false)
  (define-fun v9x5_4 () Bool
    false)
  (define-fun v1x3_9 () Bool
    false)
  (define-fun v2x1_9 () Bool
    false)
  (define-fun v8x1_5 () Bool
    false)
  (define-fun v2x8_4 () Bool
    true)
  (define-fun v4x9_6 () Bool
    false)
  (define-fun v6x4_3 () Bool
    false)
  (define-fun v5x7_1 () Bool
    false)
  (define-fun v6x8_8 () Bool
    false)
  (define-fun v7x3_6 () Bool
    false)
  (define-fun v4x8_5 () Bool
    false)
  (define-fun v3x8_6 () Bool
    true)
  (define-fun v8x7_1 () Bool
    false)
  (define-fun v3x2_2 () Bool
    false)
  (define-fun v1x5_8 () Bool
    false)
  (define-fun v3x3_8 () Bool
    true)
  (define-fun v5x6_3 () Bool
    true)
  (define-fun v6x1_9 () Bool
    false)
  (define-fun v2x8_8 () Bool
    false)
  (define-fun v6x2_8 () Bool
    false)
  (define-fun v6x1_1 () Bool
    false)
  (define-fun v2x3_8 () Bool
    false)
  (define-fun v1x7_7 () Bool
    false)
  (define-fun v1x5_6 () Bool
    false)
  (define-fun v7x9_3 () Bool
    false)
  (define-fun v2x5_1 () Bool
    false)
  (define-fun v2x4_5 () Bool
    false)
  (define-fun v8x5_9 () Bool
    false)
  (define-fun v1x9_9 () Bool
    false)
  (define-fun v2x7_8 () Bool
    false)
  (define-fun v3x8_1 () Bool
    false)
  (define-fun v2x9_6 () Bool
    false)
  (define-fun v2x8_7 () Bool
    false)
  (define-fun v7x1_3 () Bool
    false)
  (define-fun v2x8_5 () Bool
    false)
  (define-fun v1x3_7 () Bool
    false)
  (define-fun v1x5_7 () Bool
    true)
  (define-fun v4x8_7 () Bool
    false)
  (define-fun v9x2_3 () Bool
    false)
  (define-fun v7x5_5 () Bool
    false)
  (define-fun v4x6_1 () Bool
    true)
  (define-fun v9x4_6 () Bool
    false)
  (define-fun v8x8_5 () Bool
    false)
  (define-fun v2x2_6 () Bool
    false)
  (define-fun v1x7_6 () Bool
    false)
  (define-fun v2x5_8 () Bool
    false)
  (define-fun v2x6_2 () Bool
    false)
  (define-fun v3x9_7 () Bool
    true)
  (define-fun v1x4_1 () Bool
    false)
  (define-fun v6x4_5 () Bool
    false)
  (define-fun v1x2_5 () Bool
    false)
  (define-fun v4x5_9 () Bool
    false)
  (define-fun v4x7_6 () Bool
    false)
  (define-fun v6x9_6 () Bool
    true)
  (define-fun v1x9_2 () Bool
    true)
  (define-fun v5x2_7 () Bool
    false)
  (define-fun v1x8_7 () Bool
    false)
  (define-fun v8x1_7 () Bool
    false)
  (define-fun v6x8_7 () Bool
    false)
  (define-fun v5x8_8 () Bool
    false)
  (define-fun v6x3_4 () Bool
    false)
  (define-fun v3x1_6 () Bool
    false)
  (define-fun v1x5_9 () Bool
    false)
  (define-fun v9x8_8 () Bool
    false)
  (define-fun v2x2_8 () Bool
    false)
  (define-fun v9x9_9 () Bool
    true)
  (define-fun v4x2_9 () Bool
    false)
  (define-fun v8x3_8 () Bool
    false)
  (define-fun v9x3_6 () Bool
    false)
  (define-fun v1x6_4 () Bool
    false)
  (define-fun v2x8_3 () Bool
    false)
  (define-fun v5x6_5 () Bool
    false)
  (define-fun v2x3_7 () Bool
    false)
  (define-fun v4x8_4 () Bool
    false)
  (define-fun v7x5_4 () Bool
    false)
  (define-fun v2x1_8 () Bool
    false)
  (define-fun v7x5_2 () Bool
    false)
  (define-fun v1x3_6 () Bool
    false)
  (define-fun v9x7_3 () Bool
    false)
  (define-fun v4x5_3 () Bool
    false)
  (define-fun v9x9_1 () Bool
    false)
  (define-fun v3x6_9 () Bool
    false)
  (define-fun v5x3_2 () Bool
    false)
  (define-fun v5x2_4 () Bool
    false)
  (define-fun v7x8_8 () Bool
    true)
  (define-fun v9x1_1 () Bool
    false)
  (define-fun v9x8_3 () Bool
    false)
  (define-fun v4x8_2 () Bool
    true)
  (define-fun v3x4_7 () Bool
    false)
  (define-fun v5x5_1 () Bool
    false)
  (define-fun v5x9_2 () Bool
    false)
  (define-fun v6x7_3 () Bool
    false)
  (define-fun v6x5_3 () Bool
    false)
  (define-fun v9x6_1 () Bool
    false)
  (define-fun v1x1_7 () Bool
    false)
  (define-fun v1x2_7 () Bool
    false)
  (define-fun v5x9_9 () Bool
    false)
  (define-fun v3x8_8 () Bool
    false)
  (define-fun v7x5_7 () Bool
    false)
  (define-fun v3x9_2 () Bool
    false)
  (define-fun v4x4_8 () Bool
    false)
  (define-fun v4x1_8 () Bool
    true)
  (define-fun v5x3_9 () Bool
    false)
  (define-fun v9x6_7 () Bool
    false)
  (define-fun v9x4_9 () Bool
    false)
  (define-fun v3x5_7 () Bool
    false)
  (define-fun v7x6_2 () Bool
    false)
  (define-fun v8x9_3 () Bool
    false)
  (define-fun v5x9_3 () Bool
    false)
  (define-fun v6x6_2 () Bool
    false)
  (define-fun v5x5_2 () Bool
    false)
  (define-fun v3x8_4 () Bool
    false)
  (define-fun v1x6_5 () Bool
    false)
  (define-fun v5x6_7 () Bool
    false)
)
